c SAT Generator for power-law distributed variable frequencies
c -g u -v 20 -c 91 -k 3 -p 2.750000 -b 3.200000 -f /home/schmidt/Devel/ni-kop-sat/data/ensemble/ruf20-91/ruf20-91-8 -u 1 -U 1 -s 3608549305
p cnf 20 91
2 13 -14 0
1 3 10 0
1 8 10 0
-1 -2 -12 0
4 11 18 0
-13 -17 -19 0
-3 -8 17 0
-2 -11 15 0
-3 4 10 0
-2 -3 -19 0
5 -14 16 0
5 19 20 0
4 -8 -20 0
10 15 -19 0
-1 11 18 0
8 -15 -18 0
-5 -14 18 0
-7 10 -12 0
-8 -12 19 0
12 -15 -18 0
-10 14 -18 0
-6 -7 -14 0
2 6 -19 0
7 10 -13 0
4 -14 -18 0
5 -15 18 0
3 7 -19 0
-7 -10 20 0
2 16 20 0
-2 6 -10 0
-3 14 -19 0
4 15 -18 0
15 -19 -20 0
-13 -15 17 0
8 11 19 0
-14 -16 17 0
6 -12 18 0
-2 -16 18 0
-8 18 -19 0
-5 -11 16 0
-3 -12 -18 0
-2 -8 -18 0
8 10 -18 0
-2 13 -17 0
1 -3 -7 0
-2 -4 -11 0
3 14 16 0
-6 10 15 0
-1 -8 15 0
-10 13 -16 0
1 8 -11 0
-13 16 17 0
5 8 -13 0
3 15 -20 0
10 13 15 0
-6 17 20 0
-6 -10 13 0
3 -9 15 0
14 17 -19 0
9 14 -17 0
-14 -17 -19 0
6 -18 20 0
9 -12 19 0
-3 13 -14 0
5 15 18 0
-10 -14 -15 0
9 14 20 0
-8 -15 18 0
15 -16 -18 0
8 15 -16 0
7 -10 -12 0
-2 -4 8 0
2 -10 12 0
7 -10 12 0
11 12 20 0
2 7 11 0
-6 -12 -15 0
2 6 12 0
-4 -13 -15 0
7 -14 -19 0
4 8 11 0
13 -16 -18 0
-10 -14 -18 0
9 -18 20 0
1 6 15 0
-2 3 -18 0
-1 11 14 0
4 -7 -9 0
-15 -16 -19 0
-6 -9 11 0
5 -12 15 0
